proyfinal/src/viki/013/experimentInOfficeAgust.take6.output/4d2a7380-13e8-46a6-ab4c-25a4fe908332.als.dat
{'cnf.clauses': '118081',
 'cnf.totvars': '69608',
 'conflict literals': '9',
 'conflicts': '6',
 'decisions': '3085',
 'memused.mb': '16.62',
 'outcome': 'UNSAT',
 'propagations': '23393',
 'restarts': '1',
 'solver.msecs': 30,
 'task.msecs': 80}
