proyfinal/src/viki/013/experimentInOfficeAgust.take6.output/4d2a7380-13e8-46a6-ab4c-25a4fe908332.als.out
Reading from standard input... Use '--help' for help.
============================[ Problem Statistics ]=============================
|                                                                             |
|  Number of variables:         69608                                         |
|  Number of clauses:          118081                                         |
|  Parse time:                   0.02 s                                       |
|                                                                             |
============================[ Search Statistics ]==============================
| Conflicts |          ORIGINAL         |          LEARNT          | Progress |
|           |    Vars  Clauses Literals |    Limit  Clauses Lit/Cl |          |
===============================================================================
===============================================================================
restarts              : 1
conflicts             : 6              (197 /sec)
decisions             : 3085           (0.00 % random) (101357 /sec)
propagations          : 23393          (768571 /sec)
conflict literals     : 9              (0.00 % deleted)
Memory used           : 16.62 MB
CPU time              : 0.030437 s

UNSATISFIABLE
